(set-logic QF_S)
(declare-fun var0 () Int)
(declare-fun var1 () Int)
(declare-fun var2 () String)
(declare-fun var3 () String)
(declare-fun var4 () Int)
(declare-fun var5 () String)
(declare-fun var6 () String)
(declare-fun var7 () Int)
(assert (< var0 var1))
(assert (>= (str.indexof var2 var3 var4) (str.indexof var5 var6 var7)))
(assert (>= (str.len (str.replace var3 var3 var2)) (str.to.int (str.replace var5 var6 var3))))
(assert (str.in.re (str.substr var2 var4 var1) (re.+ re.allchar)))
(check-sat)